************************************************************************
file with basedata            : cr338_.bas
initial value random generator: 681476293
************************************************************************
projects                      :  1
jobs (incl. supersource/sink ):  18
horizon                       :  125
RESOURCES
  - renewable                 :  3   R
  - nonrenewable              :  2   N
  - doubly constrained        :  0   D
************************************************************************
PROJECT INFORMATION:
pronr.  #jobs rel.date duedate tardcost  MPM-Time
    1     16      0       17       15       17
************************************************************************
PRECEDENCE RELATIONS:
jobnr.    #modes  #successors   successors
   1        1          3           2   3   4
   2        3          3           5   7   8
   3        3          3           7   8  13
   4        3          3          10  13  14
   5        3          3           6   9  15
   6        3          3          10  11  12
   7        3          2           9  11
   8        3          3          11  14  17
   9        3          1          16
  10        3          1          16
  11        3          1          16
  12        3          1          17
  13        3          2          15  17
  14        3          1          15
  15        3          1          18
  16        3          1          18
  17        3          1          18
  18        1          0        
************************************************************************
REQUESTS/DURATIONS:
jobnr. mode duration  R 1  R 2  R 3  N 1  N 2
------------------------------------------------------------------------
  1      1     0       0    0    0    0    0
  2      1     5       6   10    5    6    2
         2     7       5   10    5    6    1
         3     9       5    9    3    5    1
  3      1     7       7    8    6   10    3
         2     8       6    6    5    6    3
         3     8       7    6    6    3    3
  4      1     2       5    3    6   10    3
         2     4       4    3    4    9    2
         3     5       4    2    3    9    2
  5      1     2       5    3    9    9    4
         2     3       4    3    8    3    4
         3     3       4    3    7    4    3
  6      1     1       5    3    4    9    5
         2     3       5    3    3    9    4
         3     9       2    1    3    8    3
  7      1     4       4    2    6    7    5
         2     6       3    2    5    7    5
         3    10       3    1    1    4    3
  8      1     3       9    6    9    8    7
         2     7       7    5    9    8    6
         3     9       3    5    8    4    6
  9      1     1       1    6   10    4    5
         2     7       1    6    5    3    3
         3    10       1    5    4    3    3
 10      1     1       7    5    5   10    3
         2     8       6    5    4    8    3
         3    10       4    4    4    8    2
 11      1     1       5    6   10    9   10
         2     2       5    6    7    4    9
         3     8       5    5    4    4    9
 12      1     3       8    7    6    5    8
         2     4       8    7    4    4    3
         3    10       7    6    3    2    1
 13      1     3       7    8   10    8    2
         2     5       5    6    5    8    2
         3     7       5    5    5    7    2
 14      1     6       3    6    4    6    4
         2     7       3    5    2    3    1
         3     7       3    4    3    2    2
 15      1     1       3    9    8    8   10
         2     5       3    9    7    8   10
         3     9       1    9    5    5    9
 16      1     1       7    9    5    8    8
         2     1       9    9    3   10    6
         3     2       2    9    1    6    5
 17      1     4       3    8    9    9    3
         2     8       2    6    8    8    2
         3     9       2    5    7    7    2
 18      1     0       0    0    0    0    0
************************************************************************
RESOURCEAVAILABILITIES:
  R 1  R 2  R 3  N 1  N 2
   21   19   22   92   62
************************************************************************
